[[12, 40, 39, 9, 25, 55, 18, 50, 32, 44, 3, 24, 49, 16, 33, 63, 23, 56, 43, 41, 42, 64], [22, 73, 62, 28, 61, 21, 47, 69, 36, 71, 60, 70, 20, 37, 15, 57, 5, 29, 48, 74, 30, 45, 4, 2], [68, 6, 51, 17, 75, 76, 26, 67, 7, 46, 34, 52, 27, 13, 54, 19, 8, 35, 53, 14, 59, 66, 11, 65, 38, 10, 31, 58, 72]]